
<<< setup


<<< generate

CPXPARAM_Simplex_Tolerances_Optimality           0.001
CPXPARAM_Simplex_Tolerances_Feasibility          0.001
CPXPARAM_TimeLimit                               3600
CPXPARAM_Threads                                 8
CPXPARAM_MIP_Tolerances_AbsMIPGap                0.001
CPXPARAM_MIP_Tolerances_MIPGap                   0.001
CPXPARAM_MIP_Tolerances_Integrality              0.001
CPXPARAM_MIP_Display                             4
CPXPARAM_MIP_PolishAfter_Solutions               1
Tried aggregator 1 time.
MIQCP Presolve eliminated 2 rows and 2 columns.
Reduced MIQCP has 133 rows, 387 columns, and 4489 nonzeros.
Reduced MIQCP has 0 binaries, 32 generals, 0 SOSs, and 0 indicators.
Reduced MIQCP has 66 quadratic constraints.
Presolve time = 0.00 sec. (1.92 ticks)
MIP emphasis: balance optimality and feasibility.
MIP search method: dynamic search.
Parallel mode: deterministic, using up to 8 threads.
Initializing dual steep norms . . .

Iteration log . . .
Iteration:     1   Scaled dual infeas =             2.170518

Iteration log . . .
Iteration:     1    Scaled infeas =             0.000000
Root relaxation solution time = 0.00 sec. (0.34 ticks)

        Nodes                                         Cuts/
   Node  Left     Objective  IInf  Best Integer    Best Bound    ItCnt     Gap

      0     0        6.4322    32                      6.4322       17         
*     0+    0                            6.6236        6.4322             2.89%
Found incumbent of value 6.623599 after 0.08 sec. (31.37 ticks)

Starting condition for polishing reached (PolishAfterIntSol).
Starting solution polishing.

      0     2        6.4322    32        6.6236        6.4322       32    2.89%
Elapsed time = 0.16 sec. (61.32 ticks, tree = 0.01 MB, solutions = 1)
*     1+    1                            6.5696        6.4322             2.09%
Found incumbent of value 6.569637 after 0.16 sec. (134.53 ticks)
*     1+    1                            6.5398        6.4322             1.64%
Found incumbent of value 6.539773 after 0.41 sec. (547.36 ticks)
*     1+    1                            6.5314        6.4322             1.52%
Found incumbent of value 6.531352 after 0.58 sec. (1146.57 ticks)
*     1+    1                            6.5284        6.4322             1.47%
Found incumbent of value 6.528359 after 2.59 sec. (6118.74 ticks)
*     1+    1                            6.5283        6.4322             1.47%
Found incumbent of value 6.528261 after 10.83 sec. (26384.95 ticks)
*     1+    1                            6.5282        6.4322             1.47%
Found incumbent of value 6.528215 after 26.84 sec. (65243.05 ticks)
      1     3        6.4359    31        6.5282        6.4322       47    1.47%
      2     3        6.4362    31        6.5282        6.4322       47    1.47%
      3     5        6.4487    30        6.5282        6.4359       78    1.41%
      5     4        6.4461    30        6.5282        6.4359       64    1.41%
      6     5        6.4443    30        6.5282        6.4359       78    1.41%
      7     6        6.4568    29        6.5282        6.4359       94    1.41%
      8     7        6.4523    29        6.5282        6.4359      116    1.41%
      9     8        6.4525    29        6.5282        6.4362      131    1.41%
     10     9        6.4504    29        6.5282        6.4443      146    1.28%
     11     6        6.4529    29        6.5282        6.4443       99    1.28%
Elapsed time = 439.47 sec. (783745.88 ticks, tree = 0.01 MB, solutions = 10)
     12     7        6.4540    29        6.5282        6.4443      117    1.28%
     13     8        6.4522    29        6.5282        6.4443      134    1.28%
     14     9        6.4489    29        6.5282        6.4443      146    1.28%
     15    11        6.4569    28        6.5282        6.4443      182    1.28%
     16    10        6.4601    28        6.5282        6.4443      163    1.28%
     17    12        6.4565    28        6.5282        6.4443      200    1.28%
     18    13        6.4550    28        6.5282        6.4443      214    1.28%
     19    15        6.4565    28        6.5282        6.4443      257    1.28%
     20    14        6.4661    28        6.5282        6.4443      235    1.28%
     21    16        6.4576    28        6.5282        6.4443      279    1.28%
Elapsed time = 666.64 sec. (1091031.11 ticks, tree = 0.01 MB, solutions = 10)
     22    17        6.4547    28        6.5282        6.4489      292    1.21%
     23    18        6.4588    27        6.5282        6.4489      309    1.21%
     24    19        6.4646    27        6.5282        6.4489      332    1.21%
     25    22        6.4605    27        6.5282        6.4489      381    1.21%
     26    24        6.4610    27        6.5282        6.4489      414    1.21%
     27    20        6.4614    27        6.5282        6.4489      344    1.21%
     28    23        6.4732    27        6.5282        6.4489      397    1.21%
     29    21        6.4574    26        6.5282        6.4489      359    1.21%
     30    25        6.4578    27        6.5282        6.4489      436    1.21%
     31    26        6.4605    26        6.5282        6.4489      453    1.21%
Elapsed time = 1041.72 sec. (1590727.15 ticks, tree = 0.01 MB, solutions = 10)
     32    27        6.4690    26        6.5282        6.4489      473    1.21%
     33    28        6.4659    26        6.5282        6.4489      494    1.21%
     34    30        6.4706    26        6.5282        6.4489      526    1.21%
     35    29        6.4660    26        6.5282        6.4489      508    1.21%
     36    32        6.4599    26        6.5282        6.4489      565    1.21%
     37    31        6.4746    26        6.5282        6.4489      548    1.21%
     38    33        6.4608    26        6.5282        6.4489      582    1.21%
     39    34        6.4630    25        6.5282        6.4489      606    1.21%
     40    35        6.4758    25        6.5282        6.4489      624    1.21%
     41    36        6.4725    25        6.5282        6.4489      647    1.21%
Elapsed time = 1268.34 sec. (1897663.36 ticks, tree = 0.01 MB, solutions = 10)
     42    38        6.4703    25        6.5282        6.4489      679    1.21%
     43    37        6.4701    26        6.5282        6.4489      662    1.21%
     44    39        6.4638    26        6.5282        6.4489      701    1.21%
     45    40        6.4801    25        6.5282        6.4489      724    1.21%
     46    41        6.4638    25        6.5282        6.4489      735    1.21%
     47    44        6.5053    24        6.5282        6.4489      792    1.21%
     48    43        6.5036    25        6.5282        6.4489      780    1.21%
     50    45        6.4783    24        6.5282        6.4489      808    1.21%
     51    48        6.4838    24        6.5282        6.4489      867    1.21%
     52    46        6.4749    25        6.5282        6.4489      828    1.21%
Elapsed time = 1504.78 sec. (2210065.57 ticks, tree = 0.01 MB, solutions = 10)
     53    47        6.4624    25        6.5282        6.4489      850    1.21%
     54    49        6.4668    24        6.5282        6.4489      883    1.21%
     55    51        6.4802    24        6.5282        6.4489      922    1.21%
     56    52        6.5044    24        6.5282        6.4489      942    1.21%
     57    50        6.4752    24        6.5282        6.4489      902    1.21%
     58    53        6.4800    24        6.5282        6.4489      958    1.21%
     59    55        6.4849    24        6.5282        6.4489      998    1.21%
     60    56        6.4660    24        6.5282        6.4489     1023    1.21%
     61    57        6.4696    23        6.5282        6.4489     1044    1.21%
     62    54        6.4854    23        6.5282        6.4489      980    1.21%
Elapsed time = 1867.83 sec. (2507306.51 ticks, tree = 0.01 MB, solutions = 10)
     63    60        6.4761    23        6.5282        6.4489     1100    1.21%
     64    61        6.4832    23        6.5282        6.4489     1113    1.21%
     65    58        6.4857    23        6.5282        6.4489     1058    1.21%
     66    59        6.4744    23        6.5282        6.4489     1074    1.21%
     67    65        6.4872    22        6.5282        6.4489     1196    1.21%
     68    64        6.4728    22        6.5282        6.4489     1180    1.21%
     69    62        6.4828    24        6.5282        6.4489     1133    1.21%
     70    63        6.4682    23        6.5282        6.4489     1157    1.21%
     71    66        6.4773    22        6.5282        6.4489     1217    1.21%
     72    68        6.4867    22        6.5282        6.4489     1250    1.21%
Elapsed time = 2090.75 sec. (3000986.64 ticks, tree = 0.01 MB, solutions = 10)
     73    69        6.4772    22        6.5282        6.4489     1264    1.21%
     74    70        6.4895    21        6.5282        6.4489     1290    1.21%
     75    71        6.4793    21        6.5282        6.4489     1310    1.21%
     76    72        6.4869    23        6.5282        6.4489     1329    1.21%
     77    67        6.4877    22        6.5282        6.4489     1228    1.21%
     78    73        6.4709    22        6.5282        6.4489     1358    1.21%
     79    74        6.4789    21        6.5282        6.4489     1378    1.21%
     80    75        6.4909    21        6.5282        6.4489     1397    1.21%
     81    76        6.4806    21        6.5282        6.4489     1413    1.21%
     82    77        6.4929    20        6.5282        6.4489     1432    1.21%
Elapsed time = 2311.34 sec. (3290513.94 ticks, tree = 0.02 MB, solutions = 10)
     83    78        6.4889    21        6.5282        6.4489     1450    1.21%
     84    80        6.4965    21        6.5282        6.4489     1481    1.21%
     85    79        6.4915    21        6.5282        6.4489     1468    1.21%
     86    81        6.4769    21        6.5282        6.4489     1508    1.21%
     87    82        6.4806    20        6.5282        6.4489     1531    1.21%
     88    83        6.4941    20        6.5282        6.4489     1559    1.21%
     89    84        6.4868    20        6.5282        6.4489     1567    1.21%
     90    85        6.4954    19        6.5282        6.4489     1580    1.21%
     91    88        6.4982    21        6.5282        6.4489     1630    1.21%
     92    86        6.4836    20        6.5282        6.4489     1598    1.21%
Elapsed time = 2527.77 sec. (3568176.01 ticks, tree = 0.02 MB, solutions = 10)
     93    89        6.4924    21        6.5282        6.4489     1649    1.21%
     94    87        6.4977    21        6.5282        6.4489     1611    1.21%
     95    90        6.4823    19        6.5282        6.4489     1669    1.21%
     96    93        6.4982    18        6.5282        6.4489     1729    1.21%
     97    94        6.4956    21        6.5282        6.4489     1748    1.21%
     98    91        6.4950    19        6.5282        6.4489     1697    1.21%
     99    92        6.4972    20        6.5282        6.4489     1717    1.21%
    100    95        6.4879    19        6.5282        6.4489     1763    1.21%
    101    96        6.4796    20        6.5282        6.4489     1787    1.21%
    102    97        6.4983    20        6.5282        6.4489     1798    1.21%
Elapsed time = 2849.61 sec. (3880878.08 ticks, tree = 0.02 MB, solutions = 10)
    103    98        6.4854    18        6.5282        6.4489     1815    1.21%
    104    99        6.5011    17        6.5282        6.4489     1833    1.21%
    106   104        6.4873    19        6.5282        6.4489     1926    1.21%
    107   102        6.4904    19        6.5282        6.4489     1890    1.21%
    108   100        6.5048    20        6.5282        6.4489     1850    1.21%
    109   103        6.4928    18        6.5282        6.4489     1908    1.21%
    110   105        6.5004    19        6.5282        6.4489     1943    1.21%
    111   108        6.4971    17        6.5282        6.4489     1995    1.21%
    112   107        6.5042    16        6.5282        6.4489     1978    1.21%
    113   106        6.4872    17        6.5282        6.4489     1960    1.21%
Elapsed time = 3082.78 sec. (4312730.26 ticks, tree = 0.02 MB, solutions = 10)
    114   109        6.5136    19        6.5282        6.4489     2010    1.21%
    115   110        6.4942    18        6.5282        6.4489     2033    1.21%
    116   112        6.5052    18        6.5282        6.4489     2071    1.21%
    117   111        6.5122    20        6.5282        6.4489     2047    1.21%
    118   113        6.5077    18        6.5282        6.4489     2085    1.21%
    119   114        6.5012    16        6.5282        6.4489     2104    1.21%
    120   116        6.4940    16        6.5282        6.4489     2138    1.21%
    121   117        6.4913    18        6.5282        6.4489     2158    1.21%
    122   118        6.4996    17        6.5282        6.4489     2182    1.21%
    124   119        6.5063    17        6.5282        6.4489     2200    1.21%
Elapsed time = 3325.77 sec. (4619105.05 ticks, tree = 0.02 MB, solutions = 10)
    125   119        cutoff              6.5282        6.4489     2239    1.21%
    126   120        6.5087    19        6.5282        6.4489     2216    1.21%
    127   121        cutoff              6.5282        6.4489     2268    1.21%
    128   122        6.5028    15        6.5282        6.4489     2256    1.21%
    129   124        6.4946    17        6.5282        6.4489     2286    1.21%
    130   125        6.5110    17        6.5282        6.4489     2312    1.21%
    131   124        cutoff              6.5282        6.4489     2325    1.21%
    132   125        cutoff              6.5282        6.4489     2346    1.21%
    133   126        6.5103    17        6.5282        6.4489     2366    1.21%
    134   127        6.5155    18        6.5282        6.4489     2382    1.21%
Elapsed time = 3600.02 sec. (4935836.25 ticks, tree = 0.03 MB, solutions = 10)

Root node processing (before b&c):
  Real time             =    0.08 sec. (31.40 ticks)
Parallel b&c, 8 threads:
  Real time             = 3599.94 sec. (5012852.42 ticks)
  Sync time (average)   =  174.34 sec.
  Wait time (average)   =    0.00 sec.
                          ------------
Total (root+branch&cut) = 3600.02 sec. (5012883.82 ticks)

<<< solve


OBJECTIVE: 6.528215
X*: [-0.14823 3.1253 -0.15765 2.1918 -0.16923 2.1903 -1.1111 2.1924 -1.1066 2.1888
     -1.1203 2.1918 -1.1334 2.1909 -2.0838 2.1916 -2.0463 3.1221 -2.0575 2.191
     -2.0713 2.1891 -3.0133 2.1918 -3.0068 2.1872 -3.0235 2.1912 -3.0386 2.1901
     -3.0515 2.1908] Z*: [-1 3 -1 2 -1 2 -2 2 -2 2 -2 2 -2 2 -3 2 -3 3 -3 2 -3 2 -4 2 -4 2 -4 2 -4 2
     -4 2]
f*:6.528214704

<<< post process


<<< done

